p cnf 12 50 
11 7 -12 0
-11 -3 10 0
-10 1 -3 0
-11 -2 12 0
-11 6 4 0
9 -3 10 0
12 3 -2 0
-9 2 12 0
-2 -6 9 0
1 -2 6 0
3 -7 -2 0
-12 6 -9 0
2 -4 -10 0
-8 -6 -4 0
9 -12 6 0
-11 1 -5 0
12 9 -2 0
-2 12 -11 0
-11 7 2 0
9 2 -5 0
-5 -6 1 0
-12 -3 -2 0
5 -10 7 0
5 -3 4 0
-7 6 -10 0
3 -11 -7 0
8 -12 9 0
-6 -2 -9 0
11 10 -8 0
6 -11 -1 0
6 -9 -10 0
9 -4 7 0
1 -8 10 0
-7 1 12 0
-7 -12 6 0
9 6 1 0
-7 -9 12 0
9 -8 7 0
12 -4 9 0
12 4 -9 0
9 4 10 0
11 -5 10 0
1 12 10 0
9 -6 -10 0
-7 -9 -8 0
12 10 -4 0
11 9 5 0
-12 9 -1 0
10 11 5 0
-4 -1 -10 0
